/*********************************************
 * OPL 12.7.1.0 Data
 * Author: Ania
 * Creation Date: 14 gru 2017 at 18:08:05
 *********************************************/

 n = 10;
 
 Arcs = {<1,2>, <2,5>, <5,8>, <1,3>, <3,4>, 
 		<4,6>, <3,6>, <2,3>, <2,6>, <5,7>, 
 		<6,7>, <6,9>, <7,9>, <7,10>, <9,10>, <10,8>};
 		
 Cost = [30, 40, 30, 90, 10, 10, 30, 10, 35, 10, 15, 50, 45, 25, 90, 35];

 Demands = {<1,10>, <2,8>};
 
 Volume = [10, 10];